p cnf 12 50 
-1 10 -5 0
8 -1 2 0
6 -8 -10 0
-6 7 -9 0
-11 2 9 0
9 11 10 0
12 -8 9 0
7 -3 -4 0
7 -11 3 0
10 8 -4 0
-5 -2 1 0
5 -10 2 0
-5 4 -1 0
5 -12 -4 0
-2 -6 -10 0
9 -2 -3 0
-2 -5 11 0
7 -4 12 0
5 2 -3 0
-7 5 -4 0
5 6 -11 0
11 12 -4 0
-3 -2 9 0
-1 -3 -11 0
-10 11 1 0
-1 9 3 0
-2 -8 1 0
-3 5 -12 0
6 -9 12 0
4 -7 -1 0
-4 -1 2 0
-8 -4 -12 0
-1 2 -3 0
9 4 6 0
-5 -3 8 0
-7 4 6 0
-11 -3 -10 0
-9 -11 -7 0
-8 1 5 0
-1 -6 -4 0
8 4 -3 0
5 11 12 0
-7 -9 -10 0
4 6 2 0
5 -12 -2 0
1 -10 8 0
-12 4 -2 0
-11 -5 -2 0
-6 -10 -9 0
-9 5 12 0
